solution status: optimal solution found
objective value:                     171802.552336742
d11(0,0)                                            1 	(obj:0)
d11(1,1)                                            1 	(obj:0)
d11(1,2)                                            1 	(obj:0)
d11(2,3)                                            1 	(obj:0)
d11(2,5)                                            1 	(obj:0)
d11(2,6)                                            1 	(obj:0)
d11(3,9)                                            1 	(obj:0)
d11(3,13)                                           1 	(obj:0)
d12(3,8)                                            1 	(obj:0)
d12(3,10)                                           1 	(obj:0)
d12(3,12)                                           1 	(obj:0)
d12(3,14)                                           1 	(obj:0)
d21(2,3)                                            1 	(obj:0)
d21(3,7)                                            1 	(obj:0)
d21(3,8)                                            1 	(obj:0)
d21(3,11)                                           1 	(obj:0)
y2(3,8)                              1385.48851144895 	(obj:0)
y2(3,10)                             1385.48851144895 	(obj:0)
y2(3,12)                             1385.48851144895 	(obj:0)
y2(3,14)                             1385.48851144895 	(obj:0)
STE(1,1)                             3275.99999999801 	(obj:0)
STE(0,0)                                        12600 	(obj:0)
STE(1,2)                             4934.24989888683 	(obj:0)
STE(2,3)                             609.750101109167 	(obj:0)
STE(2,4)                             2267.99999999801 	(obj:0)
STE(2,5)                             2267.99999999799 	(obj:0)
STE(2,6)                             3926.24989888683 	(obj:0)
STE(3,7)                            -398.249898890833 	(obj:0)
STE(3,8)                             917.964186985673 	(obj:0)
STE(3,9)                             1259.99999999801 	(obj:0)
STE(3,10)                            2576.21408587452 	(obj:0)
STE(3,11)                            1259.99999999799 	(obj:0)
STE(3,12)                            2576.21408587449 	(obj:0)
STE(3,13)                            2918.24989888683 	(obj:0)
STE(3,14)                            4234.46398476334 	(obj:0)
AVE(2)                               3315.65537776224 	(obj:0)
WB(3)                                3315.65799770399 	(obj:0)
y1(1,1)                              7484.40000000179 	(obj:0)
y1(1,2)                              5991.97509100185 	(obj:0)
y1(2,3)                              1492.42490899996 	(obj:0)
y1(2,5)                              1492.42490899996 	(obj:0)
AVE(3)                               3315.65799770399 	(obj:0)
WG(1)                                3248.33172520918 	(obj:10)
WG(2)                                3315.65537776224 	(obj:10)
BG(1)                                7062.22107071105 	(obj:10)
BG(2)                                880.637121217351 	(obj:10)
BG(3)                                2673.40993877551 	(obj:10)
AVE(1)                               3248.33172520918 	(obj:0)
